language ESSENCE' 1.0

letting jobs = 102
letting horizon = 798
letting resourcesRenew = 2
letting resourcesNonrenew = 2
letting resourceLimits = [83, 82, 398, 362]
letting successors = [[2, 3, 4, 5, 6, 7, 8, 9, 10, 11, 13, 15, 16, 17, 18, 21, 24, 25, 27, 28, 29, 31, 32, 34, 35, 39, 41], [100, 97, 67, 64, 60, 50, 49, 48, 45, 43, 40, 19, 12], [64, 61, 58, 50, 36, 14, 12], [99, 96, 71, 69, 63, 55, 53, 48, 44, 40, 37, 36, 26, 22], [100, 98, 69, 68, 67, 58, 56, 52, 47, 43, 38, 37, 33, 26], [96, 71, 69, 63, 58, 49, 46, 43, 40, 37, 23, 20], [101, 95, 86, 70, 68, 67, 65, 58, 56, 52, 51, 48, 46, 38, 33, 30], [98, 91, 68, 55, 54, 46, 44, 42, 38, 33, 26], [96, 95, 69, 68, 66, 63, 55, 50, 49, 48, 46, 36, 23], [99, 96, 95, 89, 86, 84, 72, 70, 65, 64, 51, 46, 36, 30], [100, 98, 96, 91, 86, 84, 72, 70, 66, 65, 63, 56, 54, 53, 52, 36], [95, 86, 72, 70, 68, 65, 51, 47, 46, 30], [100, 98, 93, 91, 89, 88, 87, 86, 82, 80, 79, 77, 71, 70, 69, 68, 67, 66, 62, 55, 46], [98, 96, 93, 88, 85, 81, 76, 63, 57, 56, 55, 51, 49, 43], [97, 67, 51, 50, 46, 30], [99, 98, 95, 94, 92, 87, 86, 85, 81, 80, 78, 76, 75, 72, 68, 67, 64, 63, 57, 51], [97, 96, 95, 93, 87, 85, 84, 83, 82, 81, 79, 78, 76, 66, 62, 57, 56, 50], [99, 97, 95, 92, 91, 90, 89, 88, 87, 86, 83, 81, 80, 78, 76, 68, 65, 58, 52], [99, 98, 96, 93, 91, 90, 87, 84, 81, 80, 78, 70, 66, 62, 61, 58, 52], [99, 93, 89, 87, 83, 81, 80, 78, 76, 72, 68, 66, 62, 55, 48], [100, 97, 96, 95, 94, 93, 89, 88, 87, 86, 84, 81, 80, 79, 78, 76, 75, 67, 65, 58], [98, 93, 92, 90, 89, 87, 85, 81, 76, 68, 52, 51, 50], [98, 97, 93, 90, 89, 88, 87, 84, 82, 81, 77, 76, 67, 56, 51], [98, 95, 94, 90, 84, 80, 75, 74, 67, 65, 60, 59, 53], [99, 94, 91, 89, 86, 85, 84, 82, 79, 71, 69, 67, 62, 59, 56], [94, 93, 90, 89, 85, 84, 83, 82, 80, 78, 70, 64, 62, 50], [96, 92, 90, 89, 85, 84, 83, 80, 78, 76, 66, 65, 62, 60], [100, 93, 91, 89, 87, 86, 85, 84, 83, 82, 80, 77, 76, 66, 62, 57], [99, 96, 95, 94, 91, 89, 88, 87, 86, 84, 81, 80, 79, 76, 65, 57], [93, 92, 88, 87, 85, 83, 82, 81, 80, 79, 73, 71, 69, 66, 55], [101, 96, 89, 87, 86, 83, 82, 79, 73, 69, 68, 66, 65, 55], [98, 94, 91, 83, 82, 81, 79, 76, 75, 74, 72, 69, 65, 53], [97, 94, 92, 85, 83, 81, 79, 78, 76, 75, 64, 63, 62], [91, 88, 87, 86, 83, 79, 77, 73, 70, 56, 54], [95, 91, 86, 84, 83, 82, 81, 79, 78, 74, 73, 71, 65], [97, 88, 87, 81, 79, 78, 76, 67, 62, 57], [91, 88, 87, 82, 81, 80, 79, 78, 75, 74, 73, 70], [96, 82, 81, 80, 78, 74, 66, 59], [86, 85, 84, 82, 81, 80, 79, 78, 77, 74, 73], [84, 82, 81, 80, 78, 77, 66, 62], [89, 80, 79, 78, 73, 50], [99, 85, 84, 78, 75, 74, 71, 65], [95, 89, 87, 86, 84, 83, 80, 77, 74], [92, 87, 80, 79, 77, 76, 75, 74, 73], [91, 87, 83, 81, 78, 76, 75, 73], [94, 85, 81, 78, 75, 74, 73], [99, 84, 83, 79, 78, 74, 73], [91, 88, 85, 82, 79, 75], [80, 78, 75, 74, 73], [88, 86, 75, 65], [91, 79, 62], [82, 79, 77, 73], [89, 88, 78, 73], [85, 80, 76, 74], [90, 75, 74], [92, 80, 75], [90, 74, 73], [85, 74, 73], [92, 76, 73], [86, 81, 79], [95, 76, 73], [74, 73], [89, 82], [77, 73], [77], [75], [83], [84], [78], [76], [76], [77], [102], [102], [102], [102], [102], [102], [102], [102], [102], [102], [102], [102], [102], [102], [102], [102], [102], [102], [102], [102], [102], [102], [102], [102], [102], [102], [102], [102], [102], []]
letting durations = [[0], [1, 2, 8], [1, 1, 5], [4, 6, 8], [3, 5, 8], [2, 3, 10], [1, 3, 8], [1, 7, 10], [2, 3, 4], [2, 6, 8], [4, 5, 5], [1, 4, 6], [9, 9, 10], [5, 5, 6], [1, 5, 9], [2, 5, 6], [4, 5, 10], [1, 3, 9], [2, 8, 9], [1, 9, 9], [5, 7, 9], [1, 1, 9], [3, 3, 10], [6, 9, 10], [6, 10, 10], [2, 5, 7], [5, 6, 8], [2, 5, 10], [4, 5, 10], [1, 8, 10], [1, 4, 4], [2, 9, 10], [4, 5, 6], [6, 7, 9], [1, 4, 9], [1, 6, 9], [3, 6, 7], [4, 8, 10], [1, 2, 2], [1, 2, 5], [1, 1, 7], [1, 7, 8], [6, 8, 9], [1, 3, 8], [1, 2, 6], [3, 4, 6], [1, 9, 10], [7, 8, 8], [5, 8, 10], [2, 4, 10], [1, 3, 9], [1, 4, 8], [3, 8, 9], [1, 5, 8], [2, 6, 9], [2, 4, 9], [4, 9, 10], [1, 4, 6], [6, 7, 10], [4, 5, 7], [2, 4, 8], [2, 5, 6], [3, 3, 7], [2, 3, 6], [6, 7, 9], [4, 8, 9], [2, 8, 8], [1, 4, 8], [3, 5, 9], [5, 5, 7], [2, 10, 10], [3, 3, 6], [6, 6, 9], [7, 10, 10], [1, 9, 10], [3, 4, 8], [1, 4, 4], [5, 6, 9], [1, 5, 6], [2, 3, 4], [6, 7, 8], [2, 3, 4], [4, 7, 9], [1, 7, 8], [8, 9, 10], [5, 6, 7], [1, 2, 4], [1, 3, 10], [4, 7, 8], [2, 4, 7], [5, 6, 8], [3, 8, 9], [2, 7, 9], [5, 6, 8], [1, 3, 10], [1, 7, 9], [3, 6, 10], [1, 4, 6], [1, 6, 8], [3, 5, 6], [4, 5, 8], [0]]
letting resourceUsage = [[[0, 0, 0, 0]], [[4, 0, 4, 0], [4, 0, 2, 0], [4, 0, 0, 2]], [[9, 0, 6, 0], [0, 9, 0, 2], [8, 0, 4, 0]], [[0, 6, 0, 7], [7, 0, 4, 0], [7, 0, 0, 5]], [[10, 0, 6, 0], [6, 0, 0, 5], [2, 0, 0, 1]], [[8, 0, 9, 0], [0, 6, 0, 6], [0, 5, 0, 5]], [[0, 7, 6, 0], [2, 0, 3, 0], [0, 3, 3, 0]], [[0, 9, 8, 0], [0, 8, 7, 0], [0, 7, 7, 0]], [[0, 8, 9, 0], [2, 0, 0, 5], [0, 3, 4, 0]], [[0, 3, 0, 9], [0, 3, 0, 5], [1, 0, 0, 5]], [[0, 9, 7, 0], [0, 9, 0, 7], [0, 9, 5, 0]], [[0, 7, 0, 6], [4, 0, 0, 6], [0, 7, 4, 0]], [[0, 9, 8, 0], [5, 0, 0, 8], [0, 7, 0, 8]], [[10, 0, 0, 8], [0, 7, 8, 0], [0, 6, 0, 3]], [[6, 0, 7, 0], [6, 0, 6, 0], [0, 3, 6, 0]], [[8, 0, 7, 0], [0, 6, 6, 0], [5, 0, 0, 4]], [[6, 0, 1, 0], [0, 8, 0, 5], [0, 8, 0, 2]], [[7, 0, 3, 0], [0, 7, 0, 1], [0, 4, 2, 0]], [[0, 4, 0, 4], [1, 0, 0, 3], [0, 3, 0, 3]], [[10, 0, 5, 0], [0, 6, 0, 9], [6, 0, 4, 0]], [[0, 7, 0, 5], [0, 6, 0, 3], [4, 0, 4, 0]], [[0, 7, 0, 5], [6, 0, 0, 4], [0, 6, 0, 3]], [[4, 0, 0, 5], [0, 5, 0, 4], [0, 5, 6, 0]], [[0, 4, 6, 0], [9, 0, 0, 7], [9, 0, 0, 6]], [[0, 5, 9, 0], [3, 0, 0, 6], [0, 2, 0, 6]], [[10, 0, 9, 0], [9, 0, 8, 0], [0, 7, 0, 4]], [[7, 0, 3, 0], [0, 7, 2, 0], [7, 0, 2, 0]], [[5, 0, 0, 8], [0, 3, 0, 4], [0, 2, 0, 1]], [[0, 7, 0, 3], [0, 7, 0, 2], [1, 0, 0, 3]], [[7, 0, 0, 7], [0, 5, 3, 0], [0, 4, 0, 2]], [[9, 0, 0, 5], [0, 4, 7, 0], [5, 0, 0, 5]], [[3, 0, 9, 0], [3, 0, 0, 7], [0, 3, 9, 0]], [[10, 0, 0, 10], [9, 0, 6, 0], [9, 0, 0, 6]], [[0, 8, 0, 7], [0, 5, 0, 5], [0, 3, 6, 0]], [[0, 8, 0, 6], [0, 7, 0, 3], [0, 7, 0, 1]], [[4, 0, 0, 7], [4, 0, 1, 0], [4, 0, 0, 3]], [[10, 0, 0, 8], [0, 5, 4, 0], [0, 5, 0, 8]], [[5, 0, 7, 0], [4, 0, 4, 0], [0, 3, 4, 0]], [[5, 0, 6, 0], [3, 0, 6, 0], [0, 4, 0, 2]], [[0, 8, 6, 0], [3, 0, 4, 0], [0, 2, 0, 3]], [[0, 5, 0, 6], [0, 5, 7, 0], [1, 0, 6, 0]], [[7, 0, 10, 0], [0, 3, 0, 6], [0, 2, 6, 0]], [[0, 7, 0, 5], [0, 7, 0, 4], [5, 0, 1, 0]], [[0, 7, 6, 0], [9, 0, 0, 3], [8, 0, 2, 0]], [[0, 7, 0, 2], [8, 0, 5, 0], [8, 0, 0, 2]], [[0, 6, 8, 0], [4, 0, 5, 0], [0, 5, 3, 0]], [[10, 0, 0, 8], [7, 0, 0, 6], [0, 4, 0, 3]], [[7, 0, 0, 9], [6, 0, 0, 8], [0, 2, 0, 8]], [[0, 10, 8, 0], [6, 0, 0, 8], [5, 0, 4, 0]], [[0, 7, 0, 10], [6, 0, 4, 0], [0, 3, 0, 5]], [[0, 9, 0, 10], [8, 0, 0, 6], [0, 4, 0, 4]], [[0, 8, 0, 8], [4, 0, 6, 0], [0, 4, 0, 4]], [[0, 8, 5, 0], [6, 0, 0, 4], [0, 6, 3, 0]], [[0, 7, 0, 7], [0, 6, 0, 3], [1, 0, 0, 2]], [[5, 0, 0, 6], [0, 3, 4, 0], [4, 0, 0, 5]], [[0, 4, 4, 0], [0, 4, 0, 6], [4, 0, 0, 3]], [[0, 5, 7, 0], [5, 0, 5, 0], [0, 2, 4, 0]], [[9, 0, 5, 0], [6, 0, 0, 5], [0, 2, 5, 0]], [[0, 7, 8, 0], [0, 7, 5, 0], [3, 0, 0, 1]], [[0, 3, 0, 4], [4, 0, 0, 4], [3, 0, 6, 0]], [[0, 7, 0, 5], [3, 0, 4, 0], [0, 6, 2, 0]], [[6, 0, 4, 0], [3, 0, 4, 0], [0, 6, 0, 3]], [[0, 8, 0, 10], [7, 0, 0, 9], [0, 8, 1, 0]], [[0, 3, 0, 2], [6, 0, 7, 0], [6, 0, 5, 0]], [[0, 8, 6, 0], [3, 0, 0, 8], [2, 0, 6, 0]], [[4, 0, 0, 5], [4, 0, 0, 4], [4, 0, 0, 3]], [[0, 8, 0, 6], [9, 0, 0, 5], [9, 0, 9, 0]], [[0, 7, 9, 0], [0, 3, 7, 0], [5, 0, 7, 0]], [[0, 4, 0, 5], [0, 3, 3, 0], [0, 2, 1, 0]], [[4, 0, 5, 0], [3, 0, 0, 7], [0, 2, 3, 0]], [[10, 0, 0, 2], [0, 6, 7, 0], [7, 0, 0, 2]], [[0, 9, 5, 0], [9, 0, 0, 6], [0, 8, 0, 3]], [[3, 0, 0, 7], [0, 3, 9, 0], [3, 0, 0, 6]], [[0, 7, 5, 0], [0, 6, 0, 4], [2, 0, 5, 0]], [[0, 8, 4, 0], [0, 8, 0, 1], [0, 6, 4, 0]], [[0, 4, 0, 4], [0, 3, 0, 4], [0, 3, 0, 3]], [[3, 0, 7, 0], [0, 6, 0, 2], [2, 0, 0, 2]], [[0, 9, 7, 0], [0, 6, 0, 5], [0, 4, 0, 3]], [[1, 0, 7, 0], [1, 0, 0, 7], [0, 4, 2, 0]], [[0, 5, 8, 0], [0, 5, 7, 0], [0, 4, 0, 7]], [[8, 0, 0, 7], [7, 0, 8, 0], [0, 4, 0, 4]], [[0, 7, 7, 0], [0, 5, 6, 0], [3, 0, 0, 3]], [[0, 3, 10, 0], [7, 0, 10, 0], [0, 3, 0, 2]], [[0, 8, 10, 0], [6, 0, 9, 0], [3, 0, 9, 0]], [[4, 0, 0, 6], [2, 0, 4, 0], [2, 0, 3, 0]], [[5, 0, 6, 0], [4, 0, 5, 0], [0, 5, 5, 0]], [[0, 6, 5, 0], [8, 0, 4, 0], [5, 0, 4, 0]], [[0, 8, 4, 0], [0, 7, 0, 6], [2, 0, 2, 0]], [[0, 9, 7, 0], [3, 0, 8, 0], [3, 0, 7, 0]], [[5, 0, 0, 6], [0, 7, 6, 0], [2, 0, 6, 0]], [[0, 2, 5, 0], [0, 2, 3, 0], [0, 2, 0, 4]], [[7, 0, 0, 6], [0, 5, 0, 5], [4, 0, 0, 5]], [[0, 9, 0, 8], [0, 8, 0, 7], [6, 0, 0, 6]], [[0, 7, 8, 0], [0, 6, 0, 3], [5, 0, 0, 3]], [[0, 4, 0, 7], [0, 4, 5, 0], [0, 4, 0, 6]], [[4, 0, 6, 0], [4, 0, 0, 4], [3, 0, 2, 0]], [[0, 9, 1, 0], [0, 6, 1, 0], [6, 0, 1, 0]], [[0, 4, 8, 0], [0, 4, 7, 0], [8, 0, 0, 2]], [[4, 0, 0, 4], [3, 0, 4, 0], [2, 0, 0, 4]], [[10, 0, 0, 1], [8, 0, 0, 1], [8, 0, 1, 0]], [[0, 1, 8, 0], [0, 1, 7, 0], [1, 0, 6, 0]], [[0, 0, 0, 0]]]
